
;this file is automatically generated: Wed Apr 21 11:03:31 CST 2021

;declarations generated

(declare-fun oclExcludes ( Int Int) Bool)
(declare-fun obj_e6220eb5_ec91_44f8_bc28_d6235fe9c91e ( Int) Int)
(declare-fun Cardinality ( Int) Int)
(declare-fun type_47e9a38e_868f_41ed_967f_ce27743c507b_Class19 ( Int) Bool)
(declare-fun type_47e9a38e_868f_41ed_967f_ce27743c507b_Class17 ( Int) Bool)
(declare-fun type_47e9a38e_868f_41ed_967f_ce27743c507b_Class18 ( Int) Bool)
(declare-fun type_47e9a38e_868f_41ed_967f_ce27743c507b_Class11 ( Int) Bool)
(declare-fun type_47e9a38e_868f_41ed_967f_ce27743c507b_Class12 ( Int) Bool)
(declare-fun type_47e9a38e_868f_41ed_967f_ce27743c507b_Class10 ( Int) Bool)
(declare-fun type_47e9a38e_868f_41ed_967f_ce27743c507b_Class15 ( Int) Bool)
(declare-fun type_47e9a38e_868f_41ed_967f_ce27743c507b_Class16 ( Int) Bool)
(declare-fun type_47e9a38e_868f_41ed_967f_ce27743c507b_Class13 ( Int) Bool)
(declare-fun type_47e9a38e_868f_41ed_967f_ce27743c507b_Class14 ( Int) Bool)
(declare-fun type_47e9a38e_868f_41ed_967f_ce27743c507b_Class28 ( Int) Bool)
(declare-fun type_47e9a38e_868f_41ed_967f_ce27743c507b_Class29 ( Int) Bool)
(declare-fun type_47e9a38e_868f_41ed_967f_ce27743c507b_Class22 ( Int) Bool)
(declare-fun type_47e9a38e_868f_41ed_967f_ce27743c507b_Class23 ( Int) Bool)
(declare-fun type_47e9a38e_868f_41ed_967f_ce27743c507b_Class20 ( Int) Bool)
(declare-fun type_47e9a38e_868f_41ed_967f_ce27743c507b_Class21 ( Int) Bool)
(declare-fun type_47e9a38e_868f_41ed_967f_ce27743c507b_Class26 ( Int) Bool)
(declare-fun type_47e9a38e_868f_41ed_967f_ce27743c507b_Class27 ( Int) Bool)
(declare-fun type_47e9a38e_868f_41ed_967f_ce27743c507b_Class24 ( Int) Bool)
(declare-fun type_47e9a38e_868f_41ed_967f_ce27743c507b_Class25 ( Int) Bool)
(declare-fun type_47e9a38e_868f_41ed_967f_ce27743c507b_Class30 ( Int) Bool)
(declare-fun oclSelect ( Int Bool) Int)
(declare-fun type_47e9a38e_868f_41ed_967f_ce27743c507b_Class39 ( Int) Bool)
(declare-fun type_47e9a38e_868f_41ed_967f_ce27743c507b_Class33 ( Int) Bool)
(declare-fun type_47e9a38e_868f_41ed_967f_ce27743c507b_Class34 ( Int) Bool)
(declare-fun type_47e9a38e_868f_41ed_967f_ce27743c507b_Class31 ( Int) Bool)
(declare-fun type_47e9a38e_868f_41ed_967f_ce27743c507b_Class32 ( Int) Bool)
(declare-fun type_47e9a38e_868f_41ed_967f_ce27743c507b_Class37 ( Int) Bool)
(declare-fun type_47e9a38e_868f_41ed_967f_ce27743c507b_Class38 ( Int) Bool)
(declare-fun type_47e9a38e_868f_41ed_967f_ce27743c507b_Class35 ( Int) Bool)
(declare-fun type_47e9a38e_868f_41ed_967f_ce27743c507b_Class36 ( Int) Bool)
(declare-fun type_47e9a38e_868f_41ed_967f_ce27743c507b_Class40 ( Int) Bool)
(declare-fun type_47e9a38e_868f_41ed_967f_ce27743c507b_Class41 ( Int) Bool)
(declare-fun type_47e9a38e_868f_41ed_967f_ce27743c507b_Class44 ( Int) Bool)
(declare-fun type_47e9a38e_868f_41ed_967f_ce27743c507b_Class45 ( Int) Bool)
(declare-fun type_47e9a38e_868f_41ed_967f_ce27743c507b_Class42 ( Int) Bool)
(declare-fun type_47e9a38e_868f_41ed_967f_ce27743c507b_Class43 ( Int) Bool)
(declare-fun type_47e9a38e_868f_41ed_967f_ce27743c507b_Class48 ( Int) Bool)
(declare-fun type_47e9a38e_868f_41ed_967f_ce27743c507b_Class49 ( Int) Bool)
(declare-fun type_47e9a38e_868f_41ed_967f_ce27743c507b_Class46 ( Int) Bool)
(declare-fun type_47e9a38e_868f_41ed_967f_ce27743c507b_Class47 ( Int) Bool)
(declare-fun type_47e9a38e_868f_41ed_967f_ce27743c507b_Class51 ( Int) Bool)
(declare-fun type_47e9a38e_868f_41ed_967f_ce27743c507b_Class52 ( Int) Bool)
(declare-fun type_47e9a38e_868f_41ed_967f_ce27743c507b_Class50 ( Int) Bool)
(declare-fun type_47e9a38e_868f_41ed_967f_ce27743c507b_Class55 ( Int) Bool)
(declare-fun type_47e9a38e_868f_41ed_967f_ce27743c507b_Class56 ( Int) Bool)
(declare-fun type_47e9a38e_868f_41ed_967f_ce27743c507b_Class53 ( Int) Bool)
(declare-fun type_47e9a38e_868f_41ed_967f_ce27743c507b_Class54 ( Int) Bool)
(declare-fun type_47e9a38e_868f_41ed_967f_ce27743c507b_Class1 ( Int) Bool)
(declare-fun type_47e9a38e_868f_41ed_967f_ce27743c507b_Class0 ( Int) Bool)
(declare-fun type_47e9a38e_868f_41ed_967f_ce27743c507b_Class3 ( Int) Bool)
(declare-fun type_47e9a38e_868f_41ed_967f_ce27743c507b_Class2 ( Int) Bool)
(declare-fun type_47e9a38e_868f_41ed_967f_ce27743c507b_Class5 ( Int) Bool)
(declare-fun type_47e9a38e_868f_41ed_967f_ce27743c507b_Class4 ( Int) Bool)
(declare-fun type_47e9a38e_868f_41ed_967f_ce27743c507b_Class7 ( Int) Bool)
(declare-fun type_47e9a38e_868f_41ed_967f_ce27743c507b_Class6 ( Int) Bool)
(declare-fun type_47e9a38e_868f_41ed_967f_ce27743c507b_Class9 ( Int) Bool)
(declare-fun type_47e9a38e_868f_41ed_967f_ce27743c507b_Class8 ( Int) Bool)
(declare-fun Enum0 ( Int) Int)
(declare-fun Enum1 ( Int) Int)
(declare-fun Enum2 ( Int) Int)
(declare-fun class34_Class34IntAttr0 ( Int) Int)
(declare-fun container_ ( Int) Int)
(declare-fun oclIncludes ( Int Int) Bool)
(declare-fun ObjAt ( Int Int) Int)

;formula(s) generated
(assert (! (forall ((c1 Int)) (=> ( type_47e9a38e_868f_41ed_967f_ce27743c507b_Class34 c1 )  (>= ( class34_Class34IntAttr0 ( obj_e6220eb5_ec91_44f8_bc28_d6235fe9c91e c1 )  )  4))):named l0))
(assert (! (exists ((o Int)) (and (and (and (and (and (and ( type_47e9a38e_868f_41ed_967f_ce27743c507b_Class0 ( obj_e6220eb5_ec91_44f8_bc28_d6235fe9c91e o )  )  ( type_47e9a38e_868f_41ed_967f_ce27743c507b_Class44 ( obj_e6220eb5_ec91_44f8_bc28_d6235fe9c91e o )  ) ) ( type_47e9a38e_868f_41ed_967f_ce27743c507b_Class36 ( obj_e6220eb5_ec91_44f8_bc28_d6235fe9c91e o )  ) ) ( type_47e9a38e_868f_41ed_967f_ce27743c507b_Class35 ( obj_e6220eb5_ec91_44f8_bc28_d6235fe9c91e o )  ) ) ( type_47e9a38e_868f_41ed_967f_ce27743c507b_Class27 ( obj_e6220eb5_ec91_44f8_bc28_d6235fe9c91e o )  ) ) ( type_47e9a38e_868f_41ed_967f_ce27743c507b_Class15 ( obj_e6220eb5_ec91_44f8_bc28_d6235fe9c91e o )  ) ) ( type_47e9a38e_868f_41ed_967f_ce27743c507b_Class28 ( obj_e6220eb5_ec91_44f8_bc28_d6235fe9c91e o )  ) )):named c0))
(assert (! (exists ((o Int)) ( type_47e9a38e_868f_41ed_967f_ce27743c507b_Class1 ( obj_e6220eb5_ec91_44f8_bc28_d6235fe9c91e o )  ) ):named c1))
(assert (! (exists ((o Int)) (and (and ( type_47e9a38e_868f_41ed_967f_ce27743c507b_Class10 ( obj_e6220eb5_ec91_44f8_bc28_d6235fe9c91e o )  )  ( type_47e9a38e_868f_41ed_967f_ce27743c507b_Class15 ( obj_e6220eb5_ec91_44f8_bc28_d6235fe9c91e o )  ) ) ( type_47e9a38e_868f_41ed_967f_ce27743c507b_Class21 ( obj_e6220eb5_ec91_44f8_bc28_d6235fe9c91e o )  ) )):named c2))
(assert (! (exists ((o Int)) ( type_47e9a38e_868f_41ed_967f_ce27743c507b_Class11 ( obj_e6220eb5_ec91_44f8_bc28_d6235fe9c91e o )  ) ):named c3))
(assert (! (exists ((o Int)) (and (and ( type_47e9a38e_868f_41ed_967f_ce27743c507b_Class12 ( obj_e6220eb5_ec91_44f8_bc28_d6235fe9c91e o )  )  ( type_47e9a38e_868f_41ed_967f_ce27743c507b_Class33 ( obj_e6220eb5_ec91_44f8_bc28_d6235fe9c91e o )  ) ) ( type_47e9a38e_868f_41ed_967f_ce27743c507b_Class15 ( obj_e6220eb5_ec91_44f8_bc28_d6235fe9c91e o )  ) )):named c4))
(assert (! (exists ((o Int)) ( type_47e9a38e_868f_41ed_967f_ce27743c507b_Class13 ( obj_e6220eb5_ec91_44f8_bc28_d6235fe9c91e o )  ) ):named c5))
(assert (! (exists ((o Int)) (and (and (and (and (and (and ( type_47e9a38e_868f_41ed_967f_ce27743c507b_Class14 ( obj_e6220eb5_ec91_44f8_bc28_d6235fe9c91e o )  )  ( type_47e9a38e_868f_41ed_967f_ce27743c507b_Class36 ( obj_e6220eb5_ec91_44f8_bc28_d6235fe9c91e o )  ) ) ( type_47e9a38e_868f_41ed_967f_ce27743c507b_Class35 ( obj_e6220eb5_ec91_44f8_bc28_d6235fe9c91e o )  ) ) ( type_47e9a38e_868f_41ed_967f_ce27743c507b_Class27 ( obj_e6220eb5_ec91_44f8_bc28_d6235fe9c91e o )  ) ) ( type_47e9a38e_868f_41ed_967f_ce27743c507b_Class9 ( obj_e6220eb5_ec91_44f8_bc28_d6235fe9c91e o )  ) ) ( type_47e9a38e_868f_41ed_967f_ce27743c507b_Class15 ( obj_e6220eb5_ec91_44f8_bc28_d6235fe9c91e o )  ) ) ( type_47e9a38e_868f_41ed_967f_ce27743c507b_Class28 ( obj_e6220eb5_ec91_44f8_bc28_d6235fe9c91e o )  ) )):named c6))
(assert (! (exists ((o Int)) ( type_47e9a38e_868f_41ed_967f_ce27743c507b_Class15 ( obj_e6220eb5_ec91_44f8_bc28_d6235fe9c91e o )  ) ):named c7))
(assert (! (exists ((o Int)) ( type_47e9a38e_868f_41ed_967f_ce27743c507b_Class16 ( obj_e6220eb5_ec91_44f8_bc28_d6235fe9c91e o )  ) ):named c8))
(assert (! (exists ((o Int)) (and (and (and (and (and (and ( type_47e9a38e_868f_41ed_967f_ce27743c507b_Class17 ( obj_e6220eb5_ec91_44f8_bc28_d6235fe9c91e o )  )  ( type_47e9a38e_868f_41ed_967f_ce27743c507b_Class44 ( obj_e6220eb5_ec91_44f8_bc28_d6235fe9c91e o )  ) ) ( type_47e9a38e_868f_41ed_967f_ce27743c507b_Class36 ( obj_e6220eb5_ec91_44f8_bc28_d6235fe9c91e o )  ) ) ( type_47e9a38e_868f_41ed_967f_ce27743c507b_Class35 ( obj_e6220eb5_ec91_44f8_bc28_d6235fe9c91e o )  ) ) ( type_47e9a38e_868f_41ed_967f_ce27743c507b_Class27 ( obj_e6220eb5_ec91_44f8_bc28_d6235fe9c91e o )  ) ) ( type_47e9a38e_868f_41ed_967f_ce27743c507b_Class15 ( obj_e6220eb5_ec91_44f8_bc28_d6235fe9c91e o )  ) ) ( type_47e9a38e_868f_41ed_967f_ce27743c507b_Class28 ( obj_e6220eb5_ec91_44f8_bc28_d6235fe9c91e o )  ) )):named c9))
(assert (! (exists ((o Int)) ( type_47e9a38e_868f_41ed_967f_ce27743c507b_Class18 ( obj_e6220eb5_ec91_44f8_bc28_d6235fe9c91e o )  ) ):named c10))
(assert (! (exists ((o Int)) (and (and (and (and (and (and ( type_47e9a38e_868f_41ed_967f_ce27743c507b_Class19 ( obj_e6220eb5_ec91_44f8_bc28_d6235fe9c91e o )  )  ( type_47e9a38e_868f_41ed_967f_ce27743c507b_Class36 ( obj_e6220eb5_ec91_44f8_bc28_d6235fe9c91e o )  ) ) ( type_47e9a38e_868f_41ed_967f_ce27743c507b_Class35 ( obj_e6220eb5_ec91_44f8_bc28_d6235fe9c91e o )  ) ) ( type_47e9a38e_868f_41ed_967f_ce27743c507b_Class27 ( obj_e6220eb5_ec91_44f8_bc28_d6235fe9c91e o )  ) ) ( type_47e9a38e_868f_41ed_967f_ce27743c507b_Class9 ( obj_e6220eb5_ec91_44f8_bc28_d6235fe9c91e o )  ) ) ( type_47e9a38e_868f_41ed_967f_ce27743c507b_Class15 ( obj_e6220eb5_ec91_44f8_bc28_d6235fe9c91e o )  ) ) ( type_47e9a38e_868f_41ed_967f_ce27743c507b_Class28 ( obj_e6220eb5_ec91_44f8_bc28_d6235fe9c91e o )  ) )):named c11))
(assert (! (exists ((o Int)) (and (and (and (and (and (and ( type_47e9a38e_868f_41ed_967f_ce27743c507b_Class2 ( obj_e6220eb5_ec91_44f8_bc28_d6235fe9c91e o )  )  ( type_47e9a38e_868f_41ed_967f_ce27743c507b_Class36 ( obj_e6220eb5_ec91_44f8_bc28_d6235fe9c91e o )  ) ) ( type_47e9a38e_868f_41ed_967f_ce27743c507b_Class35 ( obj_e6220eb5_ec91_44f8_bc28_d6235fe9c91e o )  ) ) ( type_47e9a38e_868f_41ed_967f_ce27743c507b_Class27 ( obj_e6220eb5_ec91_44f8_bc28_d6235fe9c91e o )  ) ) ( type_47e9a38e_868f_41ed_967f_ce27743c507b_Class15 ( obj_e6220eb5_ec91_44f8_bc28_d6235fe9c91e o )  ) ) ( type_47e9a38e_868f_41ed_967f_ce27743c507b_Class28 ( obj_e6220eb5_ec91_44f8_bc28_d6235fe9c91e o )  ) ) ( type_47e9a38e_868f_41ed_967f_ce27743c507b_Class54 ( obj_e6220eb5_ec91_44f8_bc28_d6235fe9c91e o )  ) )):named c12))
(assert (! (exists ((o Int)) (and ( type_47e9a38e_868f_41ed_967f_ce27743c507b_Class20 ( obj_e6220eb5_ec91_44f8_bc28_d6235fe9c91e o )  )  ( type_47e9a38e_868f_41ed_967f_ce27743c507b_Class15 ( obj_e6220eb5_ec91_44f8_bc28_d6235fe9c91e o )  ) )):named c13))
(assert (! (exists ((o Int)) (and ( type_47e9a38e_868f_41ed_967f_ce27743c507b_Class21 ( obj_e6220eb5_ec91_44f8_bc28_d6235fe9c91e o )  )  ( type_47e9a38e_868f_41ed_967f_ce27743c507b_Class15 ( obj_e6220eb5_ec91_44f8_bc28_d6235fe9c91e o )  ) )):named c14))
(assert (! (exists ((o Int)) (and (and (and ( type_47e9a38e_868f_41ed_967f_ce27743c507b_Class22 ( obj_e6220eb5_ec91_44f8_bc28_d6235fe9c91e o )  )  ( type_47e9a38e_868f_41ed_967f_ce27743c507b_Class15 ( obj_e6220eb5_ec91_44f8_bc28_d6235fe9c91e o )  ) ) ( type_47e9a38e_868f_41ed_967f_ce27743c507b_Class48 ( obj_e6220eb5_ec91_44f8_bc28_d6235fe9c91e o )  ) ) ( type_47e9a38e_868f_41ed_967f_ce27743c507b_Class43 ( obj_e6220eb5_ec91_44f8_bc28_d6235fe9c91e o )  ) )):named c15))
(assert (! (exists ((o Int)) ( type_47e9a38e_868f_41ed_967f_ce27743c507b_Class23 ( obj_e6220eb5_ec91_44f8_bc28_d6235fe9c91e o )  ) ):named c16))
(assert (! (exists ((o Int)) ( type_47e9a38e_868f_41ed_967f_ce27743c507b_Class24 ( obj_e6220eb5_ec91_44f8_bc28_d6235fe9c91e o )  ) ):named c17))
(assert (! (exists ((o Int)) (and (and (and ( type_47e9a38e_868f_41ed_967f_ce27743c507b_Class25 ( obj_e6220eb5_ec91_44f8_bc28_d6235fe9c91e o )  )  ( type_47e9a38e_868f_41ed_967f_ce27743c507b_Class12 ( obj_e6220eb5_ec91_44f8_bc28_d6235fe9c91e o )  ) ) ( type_47e9a38e_868f_41ed_967f_ce27743c507b_Class33 ( obj_e6220eb5_ec91_44f8_bc28_d6235fe9c91e o )  ) ) ( type_47e9a38e_868f_41ed_967f_ce27743c507b_Class15 ( obj_e6220eb5_ec91_44f8_bc28_d6235fe9c91e o )  ) )):named c18))
(assert (! (exists ((o Int)) ( type_47e9a38e_868f_41ed_967f_ce27743c507b_Class26 ( obj_e6220eb5_ec91_44f8_bc28_d6235fe9c91e o )  ) ):named c19))
(assert (! (exists ((o Int)) (and ( type_47e9a38e_868f_41ed_967f_ce27743c507b_Class27 ( obj_e6220eb5_ec91_44f8_bc28_d6235fe9c91e o )  )  ( type_47e9a38e_868f_41ed_967f_ce27743c507b_Class15 ( obj_e6220eb5_ec91_44f8_bc28_d6235fe9c91e o )  ) )):named c20))
(assert (! (exists ((o Int)) (and (and ( type_47e9a38e_868f_41ed_967f_ce27743c507b_Class28 ( obj_e6220eb5_ec91_44f8_bc28_d6235fe9c91e o )  )  ( type_47e9a38e_868f_41ed_967f_ce27743c507b_Class27 ( obj_e6220eb5_ec91_44f8_bc28_d6235fe9c91e o )  ) ) ( type_47e9a38e_868f_41ed_967f_ce27743c507b_Class15 ( obj_e6220eb5_ec91_44f8_bc28_d6235fe9c91e o )  ) )):named c21))
(assert (! (exists ((o Int)) (and (and (and (and (and ( type_47e9a38e_868f_41ed_967f_ce27743c507b_Class29 ( obj_e6220eb5_ec91_44f8_bc28_d6235fe9c91e o )  )  ( type_47e9a38e_868f_41ed_967f_ce27743c507b_Class36 ( obj_e6220eb5_ec91_44f8_bc28_d6235fe9c91e o )  ) ) ( type_47e9a38e_868f_41ed_967f_ce27743c507b_Class35 ( obj_e6220eb5_ec91_44f8_bc28_d6235fe9c91e o )  ) ) ( type_47e9a38e_868f_41ed_967f_ce27743c507b_Class27 ( obj_e6220eb5_ec91_44f8_bc28_d6235fe9c91e o )  ) ) ( type_47e9a38e_868f_41ed_967f_ce27743c507b_Class15 ( obj_e6220eb5_ec91_44f8_bc28_d6235fe9c91e o )  ) ) ( type_47e9a38e_868f_41ed_967f_ce27743c507b_Class28 ( obj_e6220eb5_ec91_44f8_bc28_d6235fe9c91e o )  ) )):named c22))
(assert (! (exists ((o Int)) ( type_47e9a38e_868f_41ed_967f_ce27743c507b_Class3 ( obj_e6220eb5_ec91_44f8_bc28_d6235fe9c91e o )  ) ):named c23))
(assert (! (exists ((o Int)) (and (and ( type_47e9a38e_868f_41ed_967f_ce27743c507b_Class30 ( obj_e6220eb5_ec91_44f8_bc28_d6235fe9c91e o )  )  ( type_47e9a38e_868f_41ed_967f_ce27743c507b_Class33 ( obj_e6220eb5_ec91_44f8_bc28_d6235fe9c91e o )  ) ) ( type_47e9a38e_868f_41ed_967f_ce27743c507b_Class15 ( obj_e6220eb5_ec91_44f8_bc28_d6235fe9c91e o )  ) )):named c24))
(assert (! (exists ((o Int)) (and (and (and (and (and (and ( type_47e9a38e_868f_41ed_967f_ce27743c507b_Class31 ( obj_e6220eb5_ec91_44f8_bc28_d6235fe9c91e o )  )  ( type_47e9a38e_868f_41ed_967f_ce27743c507b_Class36 ( obj_e6220eb5_ec91_44f8_bc28_d6235fe9c91e o )  ) ) ( type_47e9a38e_868f_41ed_967f_ce27743c507b_Class35 ( obj_e6220eb5_ec91_44f8_bc28_d6235fe9c91e o )  ) ) ( type_47e9a38e_868f_41ed_967f_ce27743c507b_Class27 ( obj_e6220eb5_ec91_44f8_bc28_d6235fe9c91e o )  ) ) ( type_47e9a38e_868f_41ed_967f_ce27743c507b_Class15 ( obj_e6220eb5_ec91_44f8_bc28_d6235fe9c91e o )  ) ) ( type_47e9a38e_868f_41ed_967f_ce27743c507b_Class28 ( obj_e6220eb5_ec91_44f8_bc28_d6235fe9c91e o )  ) ) ( type_47e9a38e_868f_41ed_967f_ce27743c507b_Class54 ( obj_e6220eb5_ec91_44f8_bc28_d6235fe9c91e o )  ) )):named c25))
(assert (! (exists ((o Int)) ( type_47e9a38e_868f_41ed_967f_ce27743c507b_Class32 ( obj_e6220eb5_ec91_44f8_bc28_d6235fe9c91e o )  ) ):named c26))
(assert (! (exists ((o Int)) (and ( type_47e9a38e_868f_41ed_967f_ce27743c507b_Class33 ( obj_e6220eb5_ec91_44f8_bc28_d6235fe9c91e o )  )  ( type_47e9a38e_868f_41ed_967f_ce27743c507b_Class15 ( obj_e6220eb5_ec91_44f8_bc28_d6235fe9c91e o )  ) )):named c27))
(assert (! (exists ((o Int)) ( type_47e9a38e_868f_41ed_967f_ce27743c507b_Class34 ( obj_e6220eb5_ec91_44f8_bc28_d6235fe9c91e o )  ) ):named c28))
(assert (! (exists ((o Int)) (and (and (and (and ( type_47e9a38e_868f_41ed_967f_ce27743c507b_Class35 ( obj_e6220eb5_ec91_44f8_bc28_d6235fe9c91e o )  )  ( type_47e9a38e_868f_41ed_967f_ce27743c507b_Class36 ( obj_e6220eb5_ec91_44f8_bc28_d6235fe9c91e o )  ) ) ( type_47e9a38e_868f_41ed_967f_ce27743c507b_Class27 ( obj_e6220eb5_ec91_44f8_bc28_d6235fe9c91e o )  ) ) ( type_47e9a38e_868f_41ed_967f_ce27743c507b_Class15 ( obj_e6220eb5_ec91_44f8_bc28_d6235fe9c91e o )  ) ) ( type_47e9a38e_868f_41ed_967f_ce27743c507b_Class28 ( obj_e6220eb5_ec91_44f8_bc28_d6235fe9c91e o )  ) )):named c29))
(assert (! (exists ((o Int)) (and (and (and ( type_47e9a38e_868f_41ed_967f_ce27743c507b_Class36 ( obj_e6220eb5_ec91_44f8_bc28_d6235fe9c91e o )  )  ( type_47e9a38e_868f_41ed_967f_ce27743c507b_Class27 ( obj_e6220eb5_ec91_44f8_bc28_d6235fe9c91e o )  ) ) ( type_47e9a38e_868f_41ed_967f_ce27743c507b_Class15 ( obj_e6220eb5_ec91_44f8_bc28_d6235fe9c91e o )  ) ) ( type_47e9a38e_868f_41ed_967f_ce27743c507b_Class28 ( obj_e6220eb5_ec91_44f8_bc28_d6235fe9c91e o )  ) )):named c30))
(assert (! (exists ((o Int)) (and ( type_47e9a38e_868f_41ed_967f_ce27743c507b_Class37 ( obj_e6220eb5_ec91_44f8_bc28_d6235fe9c91e o )  )  ( type_47e9a38e_868f_41ed_967f_ce27743c507b_Class15 ( obj_e6220eb5_ec91_44f8_bc28_d6235fe9c91e o )  ) )):named c31))
(assert (! (exists ((o Int)) (and (and (and (and ( type_47e9a38e_868f_41ed_967f_ce27743c507b_Class38 ( obj_e6220eb5_ec91_44f8_bc28_d6235fe9c91e o )  )  ( type_47e9a38e_868f_41ed_967f_ce27743c507b_Class22 ( obj_e6220eb5_ec91_44f8_bc28_d6235fe9c91e o )  ) ) ( type_47e9a38e_868f_41ed_967f_ce27743c507b_Class15 ( obj_e6220eb5_ec91_44f8_bc28_d6235fe9c91e o )  ) ) ( type_47e9a38e_868f_41ed_967f_ce27743c507b_Class48 ( obj_e6220eb5_ec91_44f8_bc28_d6235fe9c91e o )  ) ) ( type_47e9a38e_868f_41ed_967f_ce27743c507b_Class43 ( obj_e6220eb5_ec91_44f8_bc28_d6235fe9c91e o )  ) )):named c32))
(assert (! (exists ((o Int)) ( type_47e9a38e_868f_41ed_967f_ce27743c507b_Class39 ( obj_e6220eb5_ec91_44f8_bc28_d6235fe9c91e o )  ) ):named c33))
(assert (! (exists ((o Int)) (and (and (and (and (and (and ( type_47e9a38e_868f_41ed_967f_ce27743c507b_Class4 ( obj_e6220eb5_ec91_44f8_bc28_d6235fe9c91e o )  )  ( type_47e9a38e_868f_41ed_967f_ce27743c507b_Class44 ( obj_e6220eb5_ec91_44f8_bc28_d6235fe9c91e o )  ) ) ( type_47e9a38e_868f_41ed_967f_ce27743c507b_Class36 ( obj_e6220eb5_ec91_44f8_bc28_d6235fe9c91e o )  ) ) ( type_47e9a38e_868f_41ed_967f_ce27743c507b_Class35 ( obj_e6220eb5_ec91_44f8_bc28_d6235fe9c91e o )  ) ) ( type_47e9a38e_868f_41ed_967f_ce27743c507b_Class27 ( obj_e6220eb5_ec91_44f8_bc28_d6235fe9c91e o )  ) ) ( type_47e9a38e_868f_41ed_967f_ce27743c507b_Class15 ( obj_e6220eb5_ec91_44f8_bc28_d6235fe9c91e o )  ) ) ( type_47e9a38e_868f_41ed_967f_ce27743c507b_Class28 ( obj_e6220eb5_ec91_44f8_bc28_d6235fe9c91e o )  ) )):named c34))
(assert (! (exists ((o Int)) ( type_47e9a38e_868f_41ed_967f_ce27743c507b_Class40 ( obj_e6220eb5_ec91_44f8_bc28_d6235fe9c91e o )  ) ):named c35))
(assert (! (exists ((o Int)) ( type_47e9a38e_868f_41ed_967f_ce27743c507b_Class41 ( obj_e6220eb5_ec91_44f8_bc28_d6235fe9c91e o )  ) ):named c36))
(assert (! (exists ((o Int)) ( type_47e9a38e_868f_41ed_967f_ce27743c507b_Class42 ( obj_e6220eb5_ec91_44f8_bc28_d6235fe9c91e o )  ) ):named c37))
(assert (! (exists ((o Int)) (and ( type_47e9a38e_868f_41ed_967f_ce27743c507b_Class43 ( obj_e6220eb5_ec91_44f8_bc28_d6235fe9c91e o )  )  ( type_47e9a38e_868f_41ed_967f_ce27743c507b_Class15 ( obj_e6220eb5_ec91_44f8_bc28_d6235fe9c91e o )  ) )):named c38))
(assert (! (exists ((o Int)) (and (and (and (and (and ( type_47e9a38e_868f_41ed_967f_ce27743c507b_Class44 ( obj_e6220eb5_ec91_44f8_bc28_d6235fe9c91e o )  )  ( type_47e9a38e_868f_41ed_967f_ce27743c507b_Class36 ( obj_e6220eb5_ec91_44f8_bc28_d6235fe9c91e o )  ) ) ( type_47e9a38e_868f_41ed_967f_ce27743c507b_Class35 ( obj_e6220eb5_ec91_44f8_bc28_d6235fe9c91e o )  ) ) ( type_47e9a38e_868f_41ed_967f_ce27743c507b_Class27 ( obj_e6220eb5_ec91_44f8_bc28_d6235fe9c91e o )  ) ) ( type_47e9a38e_868f_41ed_967f_ce27743c507b_Class15 ( obj_e6220eb5_ec91_44f8_bc28_d6235fe9c91e o )  ) ) ( type_47e9a38e_868f_41ed_967f_ce27743c507b_Class28 ( obj_e6220eb5_ec91_44f8_bc28_d6235fe9c91e o )  ) )):named c39))
(assert (! (exists ((o Int)) (and (and (and (and (and (and ( type_47e9a38e_868f_41ed_967f_ce27743c507b_Class45 ( obj_e6220eb5_ec91_44f8_bc28_d6235fe9c91e o )  )  ( type_47e9a38e_868f_41ed_967f_ce27743c507b_Class36 ( obj_e6220eb5_ec91_44f8_bc28_d6235fe9c91e o )  ) ) ( type_47e9a38e_868f_41ed_967f_ce27743c507b_Class35 ( obj_e6220eb5_ec91_44f8_bc28_d6235fe9c91e o )  ) ) ( type_47e9a38e_868f_41ed_967f_ce27743c507b_Class27 ( obj_e6220eb5_ec91_44f8_bc28_d6235fe9c91e o )  ) ) ( type_47e9a38e_868f_41ed_967f_ce27743c507b_Class9 ( obj_e6220eb5_ec91_44f8_bc28_d6235fe9c91e o )  ) ) ( type_47e9a38e_868f_41ed_967f_ce27743c507b_Class15 ( obj_e6220eb5_ec91_44f8_bc28_d6235fe9c91e o )  ) ) ( type_47e9a38e_868f_41ed_967f_ce27743c507b_Class28 ( obj_e6220eb5_ec91_44f8_bc28_d6235fe9c91e o )  ) )):named c40))
(assert (! (exists ((o Int)) (and (and ( type_47e9a38e_868f_41ed_967f_ce27743c507b_Class46 ( obj_e6220eb5_ec91_44f8_bc28_d6235fe9c91e o )  )  ( type_47e9a38e_868f_41ed_967f_ce27743c507b_Class15 ( obj_e6220eb5_ec91_44f8_bc28_d6235fe9c91e o )  ) ) ( type_47e9a38e_868f_41ed_967f_ce27743c507b_Class5 ( obj_e6220eb5_ec91_44f8_bc28_d6235fe9c91e o )  ) )):named c41))
(assert (! (exists ((o Int)) ( type_47e9a38e_868f_41ed_967f_ce27743c507b_Class47 ( obj_e6220eb5_ec91_44f8_bc28_d6235fe9c91e o )  ) ):named c42))
(assert (! (exists ((o Int)) (and ( type_47e9a38e_868f_41ed_967f_ce27743c507b_Class48 ( obj_e6220eb5_ec91_44f8_bc28_d6235fe9c91e o )  )  ( type_47e9a38e_868f_41ed_967f_ce27743c507b_Class15 ( obj_e6220eb5_ec91_44f8_bc28_d6235fe9c91e o )  ) )):named c43))
(assert (! (exists ((o Int)) ( type_47e9a38e_868f_41ed_967f_ce27743c507b_Class49 ( obj_e6220eb5_ec91_44f8_bc28_d6235fe9c91e o )  ) ):named c44))
(assert (! (exists ((o Int)) (and ( type_47e9a38e_868f_41ed_967f_ce27743c507b_Class5 ( obj_e6220eb5_ec91_44f8_bc28_d6235fe9c91e o )  )  ( type_47e9a38e_868f_41ed_967f_ce27743c507b_Class15 ( obj_e6220eb5_ec91_44f8_bc28_d6235fe9c91e o )  ) )):named c45))
(assert (! (exists ((o Int)) ( type_47e9a38e_868f_41ed_967f_ce27743c507b_Class50 ( obj_e6220eb5_ec91_44f8_bc28_d6235fe9c91e o )  ) ):named c46))
(assert (! (exists ((o Int)) ( type_47e9a38e_868f_41ed_967f_ce27743c507b_Class51 ( obj_e6220eb5_ec91_44f8_bc28_d6235fe9c91e o )  ) ):named c47))
(assert (! (exists ((o Int)) ( type_47e9a38e_868f_41ed_967f_ce27743c507b_Class52 ( obj_e6220eb5_ec91_44f8_bc28_d6235fe9c91e o )  ) ):named c48))
(assert (! (exists ((o Int)) ( type_47e9a38e_868f_41ed_967f_ce27743c507b_Class53 ( obj_e6220eb5_ec91_44f8_bc28_d6235fe9c91e o )  ) ):named c49))
(assert (! (exists ((o Int)) (and (and (and (and (and ( type_47e9a38e_868f_41ed_967f_ce27743c507b_Class54 ( obj_e6220eb5_ec91_44f8_bc28_d6235fe9c91e o )  )  ( type_47e9a38e_868f_41ed_967f_ce27743c507b_Class36 ( obj_e6220eb5_ec91_44f8_bc28_d6235fe9c91e o )  ) ) ( type_47e9a38e_868f_41ed_967f_ce27743c507b_Class35 ( obj_e6220eb5_ec91_44f8_bc28_d6235fe9c91e o )  ) ) ( type_47e9a38e_868f_41ed_967f_ce27743c507b_Class27 ( obj_e6220eb5_ec91_44f8_bc28_d6235fe9c91e o )  ) ) ( type_47e9a38e_868f_41ed_967f_ce27743c507b_Class15 ( obj_e6220eb5_ec91_44f8_bc28_d6235fe9c91e o )  ) ) ( type_47e9a38e_868f_41ed_967f_ce27743c507b_Class28 ( obj_e6220eb5_ec91_44f8_bc28_d6235fe9c91e o )  ) )):named c50))
(assert (! (exists ((o Int)) ( type_47e9a38e_868f_41ed_967f_ce27743c507b_Class55 ( obj_e6220eb5_ec91_44f8_bc28_d6235fe9c91e o )  ) ):named c51))
(assert (! (exists ((o Int)) ( type_47e9a38e_868f_41ed_967f_ce27743c507b_Class56 ( obj_e6220eb5_ec91_44f8_bc28_d6235fe9c91e o )  ) ):named c52))
(assert (! (exists ((o Int)) (and (and (and (and ( type_47e9a38e_868f_41ed_967f_ce27743c507b_Class6 ( obj_e6220eb5_ec91_44f8_bc28_d6235fe9c91e o )  )  ( type_47e9a38e_868f_41ed_967f_ce27743c507b_Class22 ( obj_e6220eb5_ec91_44f8_bc28_d6235fe9c91e o )  ) ) ( type_47e9a38e_868f_41ed_967f_ce27743c507b_Class15 ( obj_e6220eb5_ec91_44f8_bc28_d6235fe9c91e o )  ) ) ( type_47e9a38e_868f_41ed_967f_ce27743c507b_Class48 ( obj_e6220eb5_ec91_44f8_bc28_d6235fe9c91e o )  ) ) ( type_47e9a38e_868f_41ed_967f_ce27743c507b_Class43 ( obj_e6220eb5_ec91_44f8_bc28_d6235fe9c91e o )  ) )):named c53))
(assert (! (exists ((o Int)) ( type_47e9a38e_868f_41ed_967f_ce27743c507b_Class7 ( obj_e6220eb5_ec91_44f8_bc28_d6235fe9c91e o )  ) ):named c54))
(assert (! (exists ((o Int)) ( type_47e9a38e_868f_41ed_967f_ce27743c507b_Class8 ( obj_e6220eb5_ec91_44f8_bc28_d6235fe9c91e o )  ) ):named c55))
(assert (! (exists ((o Int)) (and (and (and (and (and ( type_47e9a38e_868f_41ed_967f_ce27743c507b_Class9 ( obj_e6220eb5_ec91_44f8_bc28_d6235fe9c91e o )  )  ( type_47e9a38e_868f_41ed_967f_ce27743c507b_Class36 ( obj_e6220eb5_ec91_44f8_bc28_d6235fe9c91e o )  ) ) ( type_47e9a38e_868f_41ed_967f_ce27743c507b_Class35 ( obj_e6220eb5_ec91_44f8_bc28_d6235fe9c91e o )  ) ) ( type_47e9a38e_868f_41ed_967f_ce27743c507b_Class27 ( obj_e6220eb5_ec91_44f8_bc28_d6235fe9c91e o )  ) ) ( type_47e9a38e_868f_41ed_967f_ce27743c507b_Class15 ( obj_e6220eb5_ec91_44f8_bc28_d6235fe9c91e o )  ) ) ( type_47e9a38e_868f_41ed_967f_ce27743c507b_Class28 ( obj_e6220eb5_ec91_44f8_bc28_d6235fe9c91e o )  ) )):named c56))

 ;end of formula 